p cnf 7230 17
4762 4763 0
4128 -4763 0
-4128 -4762 0
4760 4761 0
4126 -4761 0
-4126 -4760 0
4758 4759 0
4124 -4759 0
-4124 -4758 0
-4132 -4162 -4164 -4168 -4206 4765 0
4756 4757 0
-4756 -4757 0
4206 -4765 0
4168 -4765 0
4164 -4765 0
4162 -4765 0
4132 -4765 0
